Route #1: 6 59 5 84 17 45 83 60 89
Route #2: 61 16 86 38 44 91 98
Route #3: 96 99 93 85 100 37 92
Route #4: 94 95 97 87 13
Route #5: 58 2 57 42 14 43 15 41 22 74 73
Route #6: 40 72 75 23 56 21 53
Route #7: 4 39 67 25 55 54
Route #8: 26 12 68 3 77 76
Route #9: 80 24 29 78 34 35 71 65 66 20
Route #10: 1 51 9 81 33 79 50
Route #11: 28 27
Route #12: 69 70 30 32 90 63 10 31
Route #13: 18 8 46 36 49 64 11 62 88
Route #14: 52 7 19 47 48 82
Cost 1070
Time 1.04638
Tempo = 1.0585479000001214